33D32945 STP File, STP Format Version 1.0

SECTION Comments
Name "edge_n12_d2_s13"
Problem "Euclidean Steiner Tree Problem"
Remark "Generated with STPGenerator. 2 dimensions."
END

SECTION Graph
Nodes 12
END

SECTION Coordinates
DD 0 0.6326431831 0.6326431831
DD 1 0.3414155828 0.3414155828
DD 2 0.9041099250 0.9041099250
DD 3 0.1300345134 0.1300345134
DD 4 0.6083626135 0.6083626135
DD 5 0.3345068657 0.3345068657
DD 6 0.1558290944 0.1558290944
DD 7 0.7948272283 0.7948272283
DD 8 0.9282009350 0.9282009350
DD 9 0.5560647936 0.5560647936
DD 10 0.0749040051 0.0749040051
DD 11 0.0531665883 0.0531665883
END
